c File: data_files/evolved_graphs/g0598.col
c
c Auto generated graph
c
p edge 100 2359
e 1 9
e 1 15
e 1 17
e 1 18
e 1 21
e 1 22
e 1 24
e 1 25
e 1 26
e 1 27
e 1 28
e 1 29
e 1 30
e 1 31
e 1 33
e 1 35
e 1 36
e 1 37
e 1 38
e 1 40
e 1 41
e 1 42
e 1 43
e 1 45
e 1 46
e 1 48
e 1 49
e 1 50
e 1 53
e 1 56
e 1 57
e 1 58
e 1 59
e 1 60
e 1 66
e 1 70
e 1 79
e 1 82
e 1 85
e 1 86
e 1 89
e 1 91
e 1 93
e 1 97
e 2 5
e 2 6
e 2 8
e 2 12
e 2 14
e 2 16
e 2 19
e 2 20
e 2 21
e 2 22
e 2 23
e 2 25
e 2 26
e 2 27
e 2 30
e 2 32
e 2 34
e 2 35
e 2 36
e 2 37
e 2 38
e 2 39
e 2 41
e 2 42
e 2 43
e 2 44
e 2 45
e 2 47
e 2 48
e 2 51
e 2 52
e 2 53
e 2 54
e 2 57
e 2 65
e 2 67
e 2 70
e 2 73
e 2 78
e 2 82
e 2 84
e 2 86
e 2 87
e 2 98
e 2 100
e 3 4
e 3 6
e 3 10
e 3 12
e 3 13
e 3 14
e 3 15
e 3 17
e 3 18
e 3 19
e 3 20
e 3 21
e 3 22
e 3 24
e 3 27
e 3 28
e 3 29
e 3 33
e 3 34
e 3 35
e 3 36
e 3 37
e 3 38
e 3 39
e 3 40
e 3 41
e 3 42
e 3 45
e 3 46
e 3 47
e 3 49
e 3 50
e 3 51
e 3 53
e 3 54
e 3 56
e 3 60
e 3 64
e 3 65
e 3 66
e 3 68
e 3 70
e 3 73
e 3 77
e 3 78
e 3 79
e 3 81
e 3 82
e 3 84
e 3 86
e 3 89
e 3 91
e 3 92
e 3 93
e 3 94
e 3 95
e 3 98
e 4 6
e 4 9
e 4 11
e 4 14
e 4 16
e 4 18
e 4 20
e 4 23
e 4 24
e 4 25
e 4 26
e 4 27
e 4 31
e 4 34
e 4 35
e 4 36
e 4 37
e 4 39
e 4 40
e 4 41
e 4 44
e 4 46
e 4 48
e 4 49
e 4 50
e 4 54
e 4 55
e 4 57
e 4 58
e 4 59
e 4 60
e 4 62
e 4 64
e 4 65
e 4 66
e 4 67
e 4 69
e 4 71
e 4 72
e 4 73
e 4 74
e 4 75
e 4 76
e 4 77
e 4 78
e 4 81
e 4 86
e 4 89
e 4 90
e 4 91
e 4 92
e 4 94
e 4 96
e 4 100
e 5 9
e 5 10
e 5 13
e 5 14
e 5 18
e 5 19
e 5 20
e 5 21
e 5 22
e 5 23
e 5 24
e 5 25
e 5 26
e 5 28
e 5 30
e 5 31
e 5 34
e 5 37
e 5 38
e 5 39
e 5 40
e 5 41
e 5 42
e 5 44
e 5 45
e 5 47
e 5 48
e 5 49
e 5 50
e 5 51
e 5 52
e 5 53
e 5 55
e 5 56
e 5 57
e 5 58
e 5 60
e 5 66
e 5 69
e 5 70
e 5 72
e 5 75
e 5 76
e 5 78
e 5 80
e 5 81
e 5 83
e 5 88
e 5 91
e 5 94
e 5 96
e 5 98
e 6 7
e 6 8
e 6 13
e 6 20
e 6 21
e 6 25
e 6 29
e 6 30
e 6 35
e 6 36
e 6 37
e 6 38
e 6 39
e 6 41
e 6 43
e 6 44
e 6 45
e 6 46
e 6 47
e 6 49
e 6 50
e 6 51
e 6 52
e 6 53
e 6 54
e 6 55
e 6 56
e 6 57
e 6 58
e 6 59
e 6 60
e 6 62
e 6 63
e 6 65
e 6 66
e 6 69
e 6 72
e 6 73
e 6 77
e 6 78
e 6 79
e 6 80
e 6 82
e 6 84
e 6 85
e 6 86
e 6 89
e 6 92
e 6 95
e 6 98
e 6 100
e 7 8
e 7 10
e 7 15
e 7 16
e 7 18
e 7 21
e 7 24
e 7 27
e 7 31
e 7 34
e 7 35
e 7 36
e 7 37
e 7 38
e 7 40
e 7 41
e 7 42
e 7 43
e 7 44
e 7 45
e 7 46
e 7 47
e 7 48
e 7 49
e 7 50
e 7 52
e 7 53
e 7 54
e 7 56
e 7 57
e 7 58
e 7 61
e 7 62
e 7 63
e 7 64
e 7 66
e 7 69
e 7 70
e 7 71
e 7 75
e 7 76
e 7 77
e 7 78
e 7 85
e 7 94
e 7 96
e 7 98
e 8 9
e 8 11
e 8 14
e 8 16
e 8 18
e 8 20
e 8 21
e 8 23
e 8 26
e 8 27
e 8 32
e 8 34
e 8 35
e 8 36
e 8 38
e 8 39
e 8 40
e 8 42
e 8 43
e 8 44
e 8 45
e 8 46
e 8 47
e 8 48
e 8 49
e 8 51
e 8 53
e 8 55
e 8 56
e 8 57
e 8 60
e 8 61
e 8 63
e 8 64
e 8 67
e 8 69
e 8 70
e 8 71
e 8 73
e 8 77
e 8 80
e 8 83
e 8 86
e 8 88
e 8 89
e 8 93
e 8 94
e 8 96
e 8 97
e 8 98
e 8 99
e 9 11
e 9 12
e 9 13
e 9 14
e 9 16
e 9 18
e 9 21
e 9 23
e 9 25
e 9 29
e 9 33
e 9 35
e 9 37
e 9 38
e 9 39
e 9 40
e 9 42
e 9 43
e 9 44
e 9 45
e 9 46
e 9 48
e 9 49
e 9 51
e 9 52
e 9 55
e 9 58
e 9 59
e 9 61
e 9 63
e 9 66
e 9 67
e 9 68
e 9 69
e 9 72
e 9 73
e 9 74
e 9 83
e 9 89
e 9 91
e 9 94
e 9 95
e 9 97
e 9 98
e 9 99
e 9 100
e 10 12
e 10 13
e 10 15
e 10 17
e 10 18
e 10 20
e 10 22
e 10 23
e 10 25
e 10 26
e 10 29
e 10 31
e 10 35
e 10 36
e 10 37
e 10 38
e 10 40
e 10 41
e 10 42
e 10 43
e 10 45
e 10 47
e 10 48
e 10 49
e 10 50
e 10 51
e 10 53
e 10 54
e 10 56
e 10 57
e 10 60
e 10 62
e 10 63
e 10 65
e 10 66
e 10 67
e 10 68
e 10 69
e 10 70
e 10 72
e 10 73
e 10 75
e 10 76
e 10 79
e 10 80
e 10 81
e 10 84
e 10 85
e 10 86
e 10 91
e 10 93
e 10 94
e 10 96
e 10 99
e 11 12
e 11 13
e 11 15
e 11 17
e 11 18
e 11 20
e 11 22
e 11 24
e 11 26
e 11 28
e 11 30
e 11 31
e 11 32
e 11 33
e 11 34
e 11 36
e 11 37
e 11 39
e 11 40
e 11 43
e 11 44
e 11 45
e 11 46
e 11 47
e 11 49
e 11 50
e 11 51
e 11 52
e 11 53
e 11 54
e 11 55
e 11 56
e 11 61
e 11 64
e 11 70
e 11 73
e 11 74
e 11 75
e 11 76
e 11 78
e 11 79
e 11 83
e 11 86
e 11 92
e 11 96
e 11 98
e 11 100
e 12 13
e 12 14
e 12 17
e 12 21
e 12 23
e 12 25
e 12 26
e 12 28
e 12 34
e 12 35
e 12 36
e 12 38
e 12 39
e 12 43
e 12 44
e 12 45
e 12 47
e 12 48
e 12 49
e 12 50
e 12 51
e 12 52
e 12 53
e 12 54
e 12 55
e 12 57
e 12 66
e 12 69
e 12 70
e 12 71
e 12 73
e 12 74
e 12 75
e 12 77
e 12 85
e 12 88
e 12 92
e 12 93
e 12 95
e 12 96
e 12 97
e 12 98
e 12 100
e 13 20
e 13 23
e 13 28
e 13 29
e 13 31
e 13 32
e 13 33
e 13 35
e 13 36
e 13 40
e 13 41
e 13 42
e 13 43
e 13 46
e 13 47
e 13 48
e 13 49
e 13 50
e 13 51
e 13 52
e 13 53
e 13 54
e 13 55
e 13 56
e 13 57
e 13 58
e 13 59
e 13 61
e 13 62
e 13 64
e 13 70
e 13 73
e 13 74
e 13 75
e 13 79
e 13 80
e 13 81
e 13 82
e 13 86
e 13 88
e 13 89
e 13 91
e 13 94
e 13 98
e 13 99
e 13 100
e 14 15
e 14 16
e 14 17
e 14 20
e 14 22
e 14 28
e 14 32
e 14 33
e 14 34
e 14 35
e 14 36
e 14 38
e 14 39
e 14 43
e 14 45
e 14 48
e 14 49
e 14 50
e 14 52
e 14 53
e 14 54
e 14 55
e 14 57
e 14 58
e 14 64
e 14 66
e 14 70
e 14 76
e 14 78
e 14 79
e 14 85
e 14 87
e 14 89
e 14 90
e 14 93
e 14 97
e 15 16
e 15 17
e 15 23
e 15 24
e 15 25
e 15 29
e 15 32
e 15 35
e 15 36
e 15 37
e 15 38
e 15 39
e 15 41
e 15 42
e 15 45
e 15 46
e 15 47
e 15 48
e 15 49
e 15 52
e 15 53
e 15 54
e 15 56
e 15 57
e 15 60
e 15 61
e 15 64
e 15 66
e 15 68
e 15 70
e 15 71
e 15 72
e 15 73
e 15 75
e 15 77
e 15 79
e 15 81
e 15 83
e 15 86
e 15 88
e 15 91
e 15 92
e 15 97
e 15 98
e 15 99
e 16 20
e 16 22
e 16 26
e 16 28
e 16 30
e 16 31
e 16 32
e 16 33
e 16 34
e 16 35
e 16 36
e 16 37
e 16 38
e 16 39
e 16 40
e 16 41
e 16 43
e 16 45
e 16 48
e 16 49
e 16 50
e 16 51
e 16 52
e 16 53
e 16 55
e 16 56
e 16 57
e 16 60
e 16 62
e 16 69
e 16 73
e 16 74
e 16 77
e 16 79
e 16 81
e 16 82
e 16 87
e 16 91
e 16 92
e 16 95
e 17 18
e 17 19
e 17 24
e 17 29
e 17 30
e 17 34
e 17 35
e 17 37
e 17 38
e 17 39
e 17 40
e 17 41
e 17 42
e 17 43
e 17 45
e 17 46
e 17 47
e 17 48
e 17 49
e 17 50
e 17 52
e 17 53
e 17 54
e 17 55
e 17 56
e 17 57
e 17 61
e 17 63
e 17 64
e 17 66
e 17 68
e 17 69
e 17 78
e 17 82
e 17 83
e 17 86
e 17 88
e 17 91
e 17 92
e 17 94
e 17 95
e 17 99
e 18 20
e 18 22
e 18 24
e 18 25
e 18 26
e 18 27
e 18 28
e 18 30
e 18 31
e 18 32
e 18 33
e 18 35
e 18 36
e 18 37
e 18 38
e 18 39
e 18 41
e 18 42
e 18 43
e 18 44
e 18 46
e 18 48
e 18 49
e 18 50
e 18 51
e 18 52
e 18 54
e 18 56
e 18 59
e 18 60
e 18 61
e 18 62
e 18 69
e 18 72
e 18 75
e 18 78
e 18 80
e 18 81
e 18 84
e 18 85
e 18 86
e 18 87
e 18 88
e 18 95
e 18 97
e 18 98
e 18 99
e 18 100
e 19 20
e 19 22
e 19 23
e 19 24
e 19 25
e 19 26
e 19 27
e 19 29
e 19 35
e 19 37
e 19 39
e 19 40
e 19 41
e 19 42
e 19 43
e 19 44
e 19 45
e 19 46
e 19 49
e 19 50
e 19 51
e 19 52
e 19 53
e 19 54
e 19 56
e 19 57
e 19 58
e 19 59
e 19 65
e 19 66
e 19 68
e 19 71
e 19 75
e 19 79
e 19 83
e 19 88
e 19 91
e 19 92
e 19 93
e 19 95
e 19 97
e 19 98
e 20 21
e 20 22
e 20 23
e 20 27
e 20 29
e 20 31
e 20 33
e 20 34
e 20 35
e 20 36
e 20 37
e 20 38
e 20 39
e 20 40
e 20 41
e 20 42
e 20 43
e 20 44
e 20 45
e 20 46
e 20 48
e 20 49
e 20 50
e 20 51
e 20 52
e 20 53
e 20 54
e 20 55
e 20 57
e 20 59
e 20 60
e 20 65
e 20 68
e 20 72
e 20 74
e 20 79
e 20 80
e 20 82
e 20 85
e 20 87
e 20 88
e 20 90
e 20 91
e 20 92
e 20 95
e 20 97
e 20 99
e 20 100
e 21 22
e 21 25
e 21 26
e 21 30
e 21 32
e 21 34
e 21 35
e 21 36
e 21 37
e 21 38
e 21 43
e 21 45
e 21 46
e 21 48
e 21 49
e 21 50
e 21 52
e 21 53
e 21 54
e 21 55
e 21 56
e 21 60
e 21 62
e 21 63
e 21 67
e 21 68
e 21 69
e 21 71
e 21 73
e 21 81
e 21 82
e 21 87
e 21 89
e 21 93
e 21 94
e 22 23
e 22 24
e 22 26
e 22 27
e 22 35
e 22 36
e 22 38
e 22 39
e 22 40
e 22 41
e 22 42
e 22 43
e 22 47
e 22 49
e 22 50
e 22 51
e 22 52
e 22 54
e 22 55
e 22 56
e 22 57
e 22 58
e 22 60
e 22 61
e 22 65
e 22 69
e 22 74
e 22 76
e 22 81
e 22 83
e 22 84
e 22 92
e 22 94
e 22 95
e 22 97
e 23 24
e 23 25
e 23 27
e 23 29
e 23 30
e 23 31
e 23 33
e 23 34
e 23 36
e 23 38
e 23 39
e 23 40
e 23 41
e 23 42
e 23 43
e 23 44
e 23 45
e 23 47
e 23 48
e 23 49
e 23 51
e 23 52
e 23 53
e 23 55
e 23 56
e 23 59
e 23 61
e 23 62
e 23 65
e 23 68
e 23 69
e 23 70
e 23 74
e 23 76
e 23 79
e 23 80
e 23 82
e 23 83
e 23 84
e 23 90
e 23 93
e 23 95
e 23 96
e 23 100
e 24 27
e 24 29
e 24 30
e 24 31
e 24 35
e 24 36
e 24 37
e 24 38
e 24 39
e 24 40
e 24 43
e 24 45
e 24 46
e 24 47
e 24 48
e 24 49
e 24 51
e 24 52
e 24 54
e 24 56
e 24 57
e 24 60
e 24 61
e 24 63
e 24 65
e 24 66
e 24 67
e 24 69
e 24 74
e 24 75
e 24 78
e 24 80
e 24 81
e 24 83
e 24 84
e 24 87
e 24 91
e 24 98
e 24 99
e 25 27
e 25 28
e 25 29
e 25 34
e 25 35
e 25 36
e 25 37
e 25 38
e 25 39
e 25 41
e 25 42
e 25 43
e 25 44
e 25 45
e 25 47
e 25 48
e 25 49
e 25 50
e 25 51
e 25 53
e 25 54
e 25 55
e 25 56
e 25 59
e 25 60
e 25 62
e 25 64
e 25 65
e 25 68
e 25 72
e 25 73
e 25 75
e 25 77
e 25 80
e 25 88
e 25 90
e 25 91
e 25 95
e 26 27
e 26 28
e 26 30
e 26 31
e 26 33
e 26 34
e 26 35
e 26 36
e 26 37
e 26 38
e 26 39
e 26 41
e 26 42
e 26 43
e 26 44
e 26 46
e 26 47
e 26 48
e 26 49
e 26 50
e 26 51
e 26 52
e 26 53
e 26 54
e 26 55
e 26 56
e 26 57
e 26 58
e 26 60
e 26 63
e 26 64
e 26 66
e 26 68
e 26 69
e 26 74
e 26 81
e 26 84
e 26 87
e 26 89
e 26 90
e 26 92
e 26 96
e 27 29
e 27 33
e 27 34
e 27 35
e 27 37
e 27 38
e 27 39
e 27 40
e 27 41
e 27 42
e 27 43
e 27 44
e 27 45
e 27 47
e 27 48
e 27 49
e 27 50
e 27 51
e 27 52
e 27 53
e 27 54
e 27 57
e 27 60
e 27 62
e 27 63
e 27 65
e 27 68
e 27 75
e 27 76
e 27 77
e 27 78
e 27 79
e 27 80
e 27 81
e 27 83
e 27 86
e 27 88
e 27 90
e 27 93
e 27 94
e 27 97
e 27 98
e 27 100
e 28 29
e 28 33
e 28 34
e 28 35
e 28 37
e 28 38
e 28 39
e 28 41
e 28 42
e 28 43
e 28 45
e 28 47
e 28 48
e 28 49
e 28 50
e 28 51
e 28 52
e 28 54
e 28 55
e 28 56
e 28 57
e 28 60
e 28 62
e 28 63
e 28 71
e 28 75
e 28 76
e 28 79
e 28 80
e 28 93
e 28 94
e 28 95
e 28 97
e 28 98
e 28 100
e 29 30
e 29 31
e 29 33
e 29 34
e 29 35
e 29 36
e 29 38
e 29 39
e 29 40
e 29 41
e 29 42
e 29 43
e 29 44
e 29 45
e 29 46
e 29 48
e 29 49
e 29 50
e 29 51
e 29 52
e 29 53
e 29 54
e 29 55
e 29 56
e 29 57
e 29 58
e 29 66
e 29 74
e 29 77
e 29 78
e 29 79
e 29 85
e 29 89
e 29 90
e 29 92
e 29 93
e 29 95
e 29 97
e 30 31
e 30 35
e 30 36
e 30 37
e 30 38
e 30 39
e 30 40
e 30 41
e 30 42
e 30 43
e 30 45
e 30 47
e 30 48
e 30 49
e 30 50
e 30 51
e 30 52
e 30 53
e 30 54
e 30 55
e 30 57
e 30 58
e 30 59
e 30 61
e 30 64
e 30 70
e 30 73
e 30 74
e 30 78
e 30 79
e 30 81
e 30 83
e 30 86
e 30 90
e 30 91
e 30 93
e 30 94
e 30 95
e 30 96
e 30 97
e 30 98
e 31 32
e 31 34
e 31 35
e 31 36
e 31 37
e 31 38
e 31 39
e 31 40
e 31 42
e 31 44
e 31 45
e 31 46
e 31 47
e 31 49
e 31 50
e 31 51
e 31 52
e 31 53
e 31 54
e 31 55
e 31 56
e 31 57
e 31 60
e 31 64
e 31 65
e 31 66
e 31 67
e 31 74
e 31 77
e 31 79
e 31 85
e 31 86
e 31 91
e 31 92
e 31 97
e 31 100
e 32 33
e 32 35
e 32 36
e 32 37
e 32 38
e 32 39
e 32 40
e 32 41
e 32 42
e 32 43
e 32 44
e 32 45
e 32 46
e 32 47
e 32 49
e 32 50
e 32 51
e 32 52
e 32 53
e 32 54
e 32 55
e 32 56
e 32 57
e 32 58
e 32 63
e 32 67
e 32 68
e 32 70
e 32 72
e 32 74
e 32 78
e 32 80
e 32 82
e 32 85
e 32 88
e 32 92
e 32 94
e 32 97
e 33 35
e 33 36
e 33 37
e 33 38
e 33 39
e 33 40
e 33 41
e 33 43
e 33 44
e 33 45
e 33 46
e 33 47
e 33 48
e 33 49
e 33 50
e 33 51
e 33 53
e 33 54
e 33 55
e 33 56
e 33 64
e 33 66
e 33 74
e 33 75
e 33 76
e 33 79
e 33 80
e 33 85
e 33 86
e 33 87
e 33 90
e 33 92
e 33 93
e 33 99
e 34 35
e 34 37
e 34 38
e 34 41
e 34 43
e 34 44
e 34 45
e 34 47
e 34 49
e 34 50
e 34 51
e 34 52
e 34 53
e 34 54
e 34 55
e 34 56
e 34 57
e 34 58
e 34 59
e 34 63
e 34 68
e 34 71
e 34 72
e 34 75
e 34 76
e 34 80
e 34 81
e 34 84
e 34 86
e 34 87
e 34 88
e 34 98
e 35 36
e 35 38
e 35 40
e 35 41
e 35 42
e 35 43
e 35 44
e 35 45
e 35 46
e 35 48
e 35 49
e 35 50
e 35 54
e 35 55
e 35 57
e 35 60
e 35 70
e 35 72
e 35 77
e 35 78
e 35 80
e 35 81
e 35 82
e 35 83
e 35 84
e 35 85
e 35 87
e 35 90
e 35 91
e 35 92
e 35 95
e 35 99
e 36 38
e 36 39
e 36 40
e 36 42
e 36 54
e 36 55
e 36 57
e 36 58
e 36 62
e 36 63
e 36 66
e 36 72
e 36 74
e 36 76
e 36 78
e 36 79
e 36 81
e 36 86
e 36 93
e 36 95
e 37 38
e 37 39
e 37 42
e 37 47
e 37 48
e 37 49
e 37 51
e 37 55
e 37 57
e 37 59
e 37 60
e 37 62
e 37 68
e 37 73
e 37 81
e 37 82
e 37 83
e 37 88
e 37 90
e 37 94
e 37 96
e 37 97
e 37 99
e 38 39
e 38 43
e 38 47
e 38 48
e 38 50
e 38 54
e 38 58
e 38 59
e 38 64
e 38 65
e 38 68
e 38 69
e 38 71
e 38 72
e 38 76
e 38 80
e 38 82
e 38 84
e 38 94
e 38 95
e 38 96
e 38 97
e 38 98
e 38 99
e 38 100
e 39 40
e 39 41
e 39 42
e 39 44
e 39 45
e 39 46
e 39 48
e 39 49
e 39 50
e 39 53
e 39 54
e 39 56
e 39 58
e 39 59
e 39 62
e 39 65
e 39 67
e 39 68
e 39 71
e 39 73
e 39 74
e 39 76
e 39 77
e 39 79
e 39 83
e 39 86
e 39 87
e 39 93
e 39 96
e 39 99
e 40 45
e 40 47
e 40 50
e 40 52
e 40 54
e 40 55
e 40 62
e 40 65
e 40 69
e 40 72
e 40 74
e 40 75
e 40 76
e 40 79
e 40 81
e 40 83
e 40 85
e 40 86
e 40 93
e 40 94
e 40 95
e 40 98
e 40 99
e 40 100
e 41 42
e 41 46
e 41 53
e 41 54
e 41 57
e 41 58
e 41 61
e 41 65
e 41 66
e 41 69
e 41 74
e 41 75
e 41 76
e 41 78
e 41 80
e 41 81
e 41 85
e 41 86
e 41 87
e 41 88
e 41 90
e 41 91
e 41 93
e 41 94
e 41 95
e 41 97
e 42 44
e 42 47
e 42 48
e 42 52
e 42 54
e 42 55
e 42 57
e 42 58
e 42 60
e 42 69
e 42 73
e 42 74
e 42 75
e 42 76
e 42 77
e 42 84
e 42 89
e 42 91
e 42 94
e 42 95
e 42 97
e 42 98
e 43 44
e 43 46
e 43 48
e 43 49
e 43 52
e 43 54
e 43 55
e 43 56
e 43 57
e 43 61
e 43 63
e 43 66
e 43 68
e 43 69
e 43 70
e 43 72
e 43 73
e 43 75
e 43 80
e 43 84
e 43 88
e 43 89
e 43 90
e 44 46
e 44 47
e 44 49
e 44 53
e 44 54
e 44 55
e 44 60
e 44 62
e 44 69
e 44 70
e 44 71
e 44 73
e 44 76
e 44 84
e 44 86
e 44 87
e 44 88
e 44 91
e 44 94
e 44 95
e 44 98
e 45 46
e 45 47
e 45 49
e 45 50
e 45 53
e 45 54
e 45 55
e 45 56
e 45 61
e 45 67
e 45 69
e 45 70
e 45 71
e 45 74
e 45 76
e 45 77
e 45 78
e 45 80
e 45 85
e 45 86
e 45 91
e 45 93
e 45 95
e 45 96
e 45 98
e 45 99
e 45 100
e 46 48
e 46 49
e 46 50
e 46 56
e 46 57
e 46 63
e 46 67
e 46 68
e 46 69
e 46 70
e 46 72
e 46 73
e 46 79
e 46 80
e 46 82
e 46 84
e 46 87
e 46 89
e 46 93
e 46 99
e 46 100
e 47 51
e 47 53
e 47 55
e 47 61
e 47 64
e 47 66
e 47 71
e 47 73
e 47 76
e 47 78
e 47 80
e 47 83
e 47 84
e 47 88
e 47 91
e 47 94
e 47 95
e 48 49
e 48 52
e 48 54
e 48 56
e 48 61
e 48 68
e 48 69
e 48 72
e 48 75
e 48 93
e 48 96
e 48 98
e 49 54
e 49 56
e 49 58
e 49 62
e 49 64
e 49 68
e 49 75
e 49 76
e 49 80
e 49 81
e 49 84
e 49 89
e 49 93
e 49 94
e 49 95
e 49 96
e 49 97
e 50 51
e 50 53
e 50 57
e 50 59
e 50 62
e 50 69
e 50 70
e 50 73
e 50 74
e 50 76
e 50 77
e 50 80
e 50 81
e 50 82
e 50 89
e 50 92
e 51 52
e 51 56
e 51 57
e 51 59
e 51 60
e 51 65
e 51 66
e 51 67
e 51 69
e 51 70
e 51 75
e 51 76
e 51 80
e 51 81
e 51 85
e 51 88
e 51 89
e 51 93
e 51 94
e 51 100
e 52 56
e 52 64
e 52 68
e 52 70
e 52 73
e 52 75
e 52 80
e 52 82
e 52 84
e 52 87
e 52 95
e 52 96
e 52 97
e 52 98
e 52 100
e 53 54
e 53 55
e 53 61
e 53 62
e 53 63
e 53 67
e 53 68
e 53 71
e 53 73
e 53 75
e 53 76
e 53 80
e 53 83
e 53 84
e 53 85
e 53 92
e 53 97
e 53 100
e 54 55
e 54 56
e 54 57
e 54 59
e 54 61
e 54 64
e 54 71
e 54 76
e 54 77
e 54 79
e 54 82
e 54 83
e 54 84
e 54 85
e 54 90
e 54 93
e 54 94
e 54 95
e 54 99
e 55 56
e 55 60
e 55 66
e 55 68
e 55 70
e 55 71
e 55 72
e 55 77
e 55 79
e 55 80
e 55 85
e 55 86
e 55 90
e 55 91
e 55 92
e 55 93
e 55 96
e 55 100
e 56 58
e 56 60
e 56 61
e 56 62
e 56 63
e 56 71
e 56 72
e 56 76
e 56 77
e 56 78
e 56 79
e 56 81
e 56 86
e 56 88
e 56 93
e 56 96
e 56 99
e 56 100
e 57 60
e 57 61
e 57 63
e 57 64
e 57 66
e 57 67
e 57 75
e 57 80
e 57 83
e 57 84
e 57 85
e 57 87
e 57 88
e 57 89
e 57 98
e 58 60
e 58 62
e 58 63
e 58 65
e 58 68
e 58 69
e 58 70
e 58 71
e 58 73
e 58 77
e 58 81
e 58 82
e 58 85
e 58 86
e 58 87
e 58 88
e 58 89
e 58 90
e 58 92
e 58 95
e 58 96
e 58 98
e 59 60
e 59 62
e 59 65
e 59 67
e 59 68
e 59 70
e 59 73
e 59 74
e 59 75
e 59 78
e 59 79
e 59 84
e 59 88
e 59 89
e 59 91
e 59 96
e 59 98
e 59 99
e 59 100
e 60 64
e 60 67
e 60 69
e 60 73
e 60 75
e 60 77
e 60 79
e 60 80
e 60 81
e 60 86
e 60 95
e 60 96
e 60 98
e 61 63
e 61 65
e 61 66
e 61 68
e 61 70
e 61 71
e 61 73
e 61 74
e 61 75
e 61 76
e 61 78
e 61 80
e 61 81
e 61 84
e 61 93
e 61 95
e 61 97
e 61 100
e 62 63
e 62 65
e 62 67
e 62 69
e 62 70
e 62 73
e 62 77
e 62 81
e 62 82
e 62 85
e 62 86
e 62 88
e 62 90
e 62 92
e 62 93
e 62 94
e 62 97
e 62 98
e 62 100
e 63 66
e 63 69
e 63 71
e 63 73
e 63 75
e 63 77
e 63 78
e 63 81
e 63 85
e 63 87
e 63 88
e 63 90
e 63 92
e 63 93
e 63 95
e 63 100
e 64 68
e 64 70
e 64 73
e 64 74
e 64 75
e 64 76
e 64 78
e 64 83
e 64 84
e 64 86
e 64 89
e 64 90
e 64 92
e 64 93
e 64 98
e 64 100
e 65 66
e 65 68
e 65 69
e 65 71
e 65 72
e 65 73
e 65 74
e 65 76
e 65 77
e 65 78
e 65 79
e 65 81
e 65 86
e 65 87
e 65 88
e 65 89
e 65 92
e 65 97
e 65 99
e 65 100
e 66 71
e 66 72
e 66 74
e 66 75
e 66 79
e 66 85
e 66 90
e 66 95
e 66 97
e 67 72
e 67 73
e 67 75
e 67 77
e 67 79
e 67 80
e 67 81
e 67 84
e 67 85
e 67 88
e 67 95
e 67 97
e 67 98
e 67 100
e 68 69
e 68 73
e 68 74
e 68 75
e 68 76
e 68 81
e 68 83
e 68 85
e 68 86
e 68 88
e 68 90
e 68 92
e 68 94
e 68 95
e 68 98
e 69 72
e 69 74
e 69 75
e 69 77
e 69 79
e 69 85
e 69 86
e 69 87
e 69 88
e 69 89
e 69 96
e 69 98
e 69 99
e 70 72
e 70 75
e 70 76
e 70 79
e 70 82
e 70 83
e 70 85
e 70 86
e 70 87
e 70 88
e 70 90
e 70 91
e 70 92
e 70 95
e 70 97
e 70 98
e 71 72
e 71 76
e 71 77
e 71 78
e 71 83
e 71 89
e 71 91
e 71 92
e 71 93
e 71 94
e 71 96
e 71 99
e 71 100
e 72 78
e 72 81
e 72 86
e 72 87
e 72 88
e 72 89
e 72 90
e 72 92
e 72 94
e 72 95
e 72 96
e 72 97
e 72 99
e 72 100
e 73 74
e 73 75
e 73 77
e 73 78
e 73 80
e 73 82
e 73 83
e 73 85
e 73 89
e 73 90
e 73 93
e 73 94
e 73 95
e 73 98
e 73 100
e 74 75
e 74 76
e 74 78
e 74 79
e 74 82
e 74 83
e 74 86
e 74 87
e 74 88
e 74 90
e 74 91
e 74 94
e 74 95
e 74 98
e 74 99
e 75 76
e 75 81
e 75 85
e 75 88
e 75 89
e 75 90
e 75 91
e 75 92
e 75 93
e 75 94
e 75 95
e 75 97
e 76 81
e 76 82
e 76 83
e 76 84
e 76 88
e 76 91
e 76 92
e 76 93
e 76 94
e 76 98
e 76 100
e 77 78
e 77 79
e 77 80
e 77 81
e 77 86
e 77 89
e 77 90
e 77 91
e 77 92
e 77 95
e 77 100
e 78 83
e 78 84
e 78 85
e 78 88
e 78 90
e 78 92
e 78 94
e 78 95
e 78 96
e 78 97
e 78 100
e 79 81
e 79 82
e 79 89
e 79 92
e 79 96
e 79 97
e 79 99
e 80 81
e 80 82
e 80 84
e 80 85
e 80 89
e 80 91
e 80 94
e 80 96
e 80 99
e 81 82
e 81 83
e 81 88
e 81 89
e 81 90
e 81 91
e 81 92
e 81 95
e 81 100
e 82 84
e 82 85
e 82 89
e 82 91
e 82 94
e 82 95
e 82 97
e 82 98
e 82 99
e 83 84
e 83 86
e 83 89
e 83 91
e 83 95
e 83 96
e 83 97
e 83 98
e 84 87
e 84 89
e 84 92
e 84 94
e 84 97
e 84 99
e 84 100
e 85 86
e 85 88
e 85 94
e 85 95
e 85 96
e 86 87
e 86 88
e 86 89
e 86 90
e 86 95
e 86 97
e 86 99
e 86 100
e 87 88
e 87 90
e 87 91
e 87 95
e 87 100
e 88 95
e 88 97
e 88 99
e 89 90
e 89 94
e 89 97
e 89 98
e 89 99
e 90 94
e 90 95
e 90 96
e 90 98
e 90 99
e 91 93
e 91 95
e 91 100
e 92 93
e 92 98
e 92 100
e 93 94
e 93 96
e 93 97
e 93 100
e 94 96
e 94 98
e 94 99
e 95 96
e 95 98
e 95 99
e 96 99
e 97 99
e 98 100
e 99 100
